Problem:    
Rows:       62
Columns:    231 (231 integer, 231 binary)
Non-zeros:  841
Status:     INTEGER OPTIMAL
Objective:  score = 99028 (MAXimum)

   No.   Row name        Activity     Lower bound   Upper bound
------ ------------    ------------- ------------- -------------
     1 index_0                     0             0               
     2 index_1                     5             0               
     3 index_2                     1             0               
     4 index_3                     1             0               
     5 index_4                     1             0               
     6 index_5                     4             0               
     7 index_6                     2             0               
     8 index_7                     2             0               
     9 index_8                     2             0               
    10 index_9                     3             0               
    11 index_10                    6             0               
    12 index_11                    0             0               
    13 index_12                    3             0               
    14 index_13                    3             0               
    15 index_14                    3             0               
    16 index_15                    1             0               
    17 index_16                    1             0               
    18 index_17                    1             0               
    19 index_18                    1             0               
    20 index_19                    0             0               
    21 index_20                    4             0               
    22 index_21                    2             0               
    23 index_22                    0             0               
    24 index_23                    3             0               
    25 index_24                    9             0               
    26 index_25                    3             0               
    27 index_26                    1             0               
    28 index_27                    6             0               
    29 index_28                    1             0               
    30 index_29                    0             0               
    31 index_30                    2             0               
    32 index_31                    1             0               
    33 index_32                    4             0               
    34 index_33                    3             0               
    35 index_34                    0             0               
    36 index_35                    0             0               
    37 index_36                    2             0               
    38 index_37                    0             0               
    39 index_38                    0             0               
    40 index_39                    0             0               
    41 index_40                    1             0               
    42 index_41                    0             0               
    43 index_42                    1             0               
    44 index_43                    1             0               
    45 index_44                    7             0               
    46 index_45                    0             0               
    47 index_46                    0             0               
    48 index_47                    7             0               
    49 index_48                    0             0               
    50 index_49                    2             0               
    51 index_50                    0             0               
    52 index_51                    9             0               
    53 index_52                    1             0               
    54 index_53                    4             0               
    55 index_54                    0             0               
    56 index_55                    5             0               
    57 index_56                    0             0               
    58 index_57                    0             0               
    59 index_58                    2             0               
    60 index_59                    5             0               
    61 index_60                    7             0               
    62 length                   2442                        6414 

   No. Column name       Activity     Lower bound   Upper bound
------ ------------    ------------- ------------- -------------
     1 c0           *              1             0             1 
     2 c1           *              1             0             1 
     3 c2           *              1             0             1 
     4 c3           *              1             0             1 
     5 c4           *              1             0             1 
     6 c5           *              1             0             1 
     7 c6           *              1             0             1 
     8 c7           *              1             0             1 
     9 c8           *              1             0             1 
    10 c9           *              1             0             1 
    11 c10          *              1             0             1 
    12 c11          *              1             0             1 
    13 c12          *              1             0             1 
    14 c13          *              1             0             1 
    15 c14          *              1             0             1 
    16 c15          *              1             0             1 
    17 c16          *              1             0             1 
    18 c17          *              1             0             1 
    19 c18          *              1             0             1 
    20 c19          *              1             0             1 
    21 c20          *              1             0             1 
    22 c21          *              1             0             1 
    23 c22          *              1             0             1 
    24 c23          *              1             0             1 
    25 c24          *              1             0             1 
    26 c25          *              1             0             1 
    27 c26          *              1             0             1 
    28 c27          *              1             0             1 
    29 c28          *              1             0             1 
    30 c29          *              1             0             1 
    31 c30          *              1             0             1 
    32 c31          *              1             0             1 
    33 c32          *              1             0             1 
    34 c33          *              1             0             1 
    35 c34          *              1             0             1 
    36 c35          *              1             0             1 
    37 c36          *              1             0             1 
    38 c37          *              1             0             1 
    39 c38          *              1             0             1 
    40 c39          *              1             0             1 
    41 c40          *              1             0             1 
    42 c41          *              1             0             1 
    43 c42          *              1             0             1 
    44 c43          *              1             0             1 
    45 c44          *              1             0             1 
    46 c45          *              1             0             1 
    47 c46          *              1             0             1 
    48 c47          *              1             0             1 
    49 c48          *              1             0             1 
    50 c49          *              1             0             1 
    51 c50          *              1             0             1 
    52 c51          *              1             0             1 
    53 c52          *              1             0             1 
    54 c53          *              1             0             1 
    55 c54          *              1             0             1 
    56 c55          *              1             0             1 
    57 c56          *              1             0             1 
    58 c57          *              1             0             1 
    59 c58          *              1             0             1 
    60 c59          *              1             0             1 
    61 c60          *              1             0             1 
    62 c61          *              1             0             1 
    63 s37          *              1             0             1 
    64 s53          *              0             0             1 
    65 s79          *              0             0             1 
    66 s150         *              0             0             1 
    67 s118         *              1             0             1 
    68 s123         *              0             0             1 
    69 s128         *              1             0             1 
    70 s129         *              0             0             1 
    71 s134         *              0             0             1 
    72 s54          *              0             0             1 
    73 s168         *              1             0             1 
    74 s62          *              0             0             1 
    75 s64          *              1             0             1 
    76 s66          *              0             0             1 
    77 s91          *              0             0             1 
    78 s162         *              0             0             1 
    79 s58          *              0             0             1 
    80 s72          *              0             0             1 
    81 s48          *              0             0             1 
    82 s50          *              0             0             1 
    83 s86          *              0             0             1 
    84 s102         *              0             0             1 
    85 s111         *              0             0             1 
    86 s131         *              0             0             1 
    87 s141         *              0             0             1 
    88 s158         *              0             0             1 
    89 s113         *              1             0             1 
    90 s164         *              0             0             1 
    91 s78          *              1             0             1 
    92 s34          *              0             0             1 
    93 s44          *              0             0             1 
    94 s107         *              0             0             1 
    95 s148         *              0             0             1 
    96 s153         *              0             0             1 
    97 s166         *              1             0             1 
    98 s167         *              0             0             1 
    99 s146         *              0             0             1 
   100 s144         *              0             0             1 
   101 s33          *              0             0             1 
   102 s57          *              1             0             1 
   103 s63          *              0             0             1 
   104 s28          *              0             0             1 
   105 s137         *              0             0             1 
   106 s49          *              1             0             1 
   107 s71          *              1             0             1 
   108 s87          *              0             0             1 
   109 s142         *              0             0             1 
   110 s159         *              0             0             1 
   111 s77          *              0             0             1 
   112 s15          *              1             0             1 
   113 s16          *              0             0             1 
   114 s17          *              0             0             1 
   115 s18          *              0             0             1 
   116 s35          *              0             0             1 
   117 s41          *              0             0             1 
   118 s82          *              0             0             1 
   119 s165         *              0             0             1 
   120 s38          *              0             0             1 
   121 s42          *              1             0             1 
   122 s55          *              0             0             1 
   123 s80          *              0             0             1 
   124 s96          *              0             0             1 
   125 s104         *              0             0             1 
   126 s135         *              0             0             1 
   127 s151         *              0             0             1 
   128 s103         *              0             0             1 
   129 s24          *              0             0             1 
   130 s67          *              0             0             1 
   131 s59          *              0             0             1 
   132 s68          *              0             0             1 
   133 s74          *              0             0             1 
   134 s83          *              0             0             1 
   135 s115         *              0             0             1 
   136 s120         *              0             0             1 
   137 s125         *              0             0             1 
   138 s45          *              0             0             1 
   139 s138         *              0             0             1 
   140 s155         *              0             0             1 
   141 s27          *              0             0             1 
   142 s99          *              1             0             1 
   143 s108         *              0             0             1 
   144 s12          *              1             0             1 
   145 s19          *              0             0             1 
   146 s25          *              0             0             1 
   147 s26          *              0             0             1 
   148 s30          *              0             0             1 
   149 s32          *              0             0             1 
   150 s36          *              0             0             1 
   151 s51          *              0             0             1 
   152 s65          *              0             0             1 
   153 s124         *              0             0             1 
   154 s130         *              0             0             1 
   155 s6           *              0             0             1 
   156 s7           *              0             0             1 
   157 s10          *              0             0             1 
   158 s13          *              0             0             1 
   159 s20          *              0             0             1 
   160 s23          *              0             0             1 
   161 s106         *              0             0             1 
   162 s8           *              0             0             1 
   163 s9           *              0             0             1 
   164 s14          *              0             0             1 
   165 s22          *              0             0             1 
   166 s31          *              0             0             1 
   167 s93          *              0             0             1 
   168 s94          *              0             0             1 
   169 s95          *              1             0             1 
   170 s0           *              0             0             1 
   171 s1           *              0             0             1 
   172 s2           *              0             0             1 
   173 s3           *              0             0             1 
   174 s4           *              0             0             1 
   175 s5           *              0             0             1 
   176 s11          *              0             0             1 
   177 s21          *              0             0             1 
   178 s40          *              0             0             1 
   179 s43          *              0             0             1 
   180 s52          *              0             0             1 
   181 s73          *              0             0             1 
   182 s88          *              0             0             1 
   183 s89          *              0             0             1 
   184 s119         *              0             0             1 
   185 s136         *              0             0             1 
   186 s147         *              0             0             1 
   187 s154         *              0             0             1 
   188 s161         *              0             0             1 
   189 s29          *              1             0             1 
   190 s46          *              0             0             1 
   191 s47          *              0             0             1 
   192 s60          *              0             0             1 
   193 s61          *              0             0             1 
   194 s69          *              0             0             1 
   195 s70          *              0             0             1 
   196 s75          *              0             0             1 
   197 s76          *              0             0             1 
   198 s84          *              0             0             1 
   199 s85          *              0             0             1 
   200 s100         *              0             0             1 
   201 s101         *              0             0             1 
   202 s109         *              0             0             1 
   203 s110         *              0             0             1 
   204 s116         *              0             0             1 
   205 s117         *              0             0             1 
   206 s121         *              0             0             1 
   207 s122         *              0             0             1 
   208 s126         *              0             0             1 
   209 s127         *              0             0             1 
   210 s132         *              0             0             1 
   211 s133         *              0             0             1 
   212 s139         *              0             0             1 
   213 s140         *              0             0             1 
   214 s149         *              0             0             1 
   215 s156         *              0             0             1 
   216 s157         *              0             0             1 
   217 s163         *              0             0             1 
   218 s39          *              0             0             1 
   219 s56          *              0             0             1 
   220 s81          *              0             0             1 
   221 s90          *              0             0             1 
   222 s92          *              0             0             1 
   223 s97          *              0             0             1 
   224 s98          *              0             0             1 
   225 s105         *              0             0             1 
   226 s112         *              0             0             1 
   227 s114         *              0             0             1 
   228 s143         *              0             0             1 
   229 s145         *              0             0             1 
   230 s152         *              0             0             1 
   231 s160         *              0             0             1 

Integer feasibility conditions:

KKT.PE: max.abs.err = 0.00e+00 on row 0
        max.rel.err = 0.00e+00 on row 0
        High quality

KKT.PB: max.abs.err = 0.00e+00 on row 0
        max.rel.err = 0.00e+00 on row 0
        High quality

End of output
